26 24 0 0 0
1 1 0 0
2 0.707106781 0.707106781 0
3 0 1 0
4 -0.707106781 0.707106781 0
5 -1 0 0
6 -0.707106781 -0.707106781 0
7 0 -1 0
8 0.707106781 -0.707106781 0
9 0 0 1
10 0.707106781 0 0.707106781
11 0.577350269 0.577350269 0.577350269
12 0 0.707106781 0.707106781
13 -0.577350269 0.577350269 0.577350269
14 -0.707106781 0 0.707106781
15 -0.577350269 -0.577350269 0.577350269
16 0 -0.707106781 0.707106781
17 0.577350269 -0.577350269 0.577350269
18 0 0 -1
19 0.707106781 0 -0.707106781
20 0.577350269 0.577350269 -0.577350269
21 0 0.707106781 -0.707106781
22 -0.577350269 0.577350269 -0.577350269
23 -0.707106781 -0 -0.707106781
24 -0.577350269 -0.577350269 -0.577350269
25 0 -0.707106781 -0.707106781
26 0.577350269 -0.577350269 -0.577350269
1 1 quad 1 2 11 10
2 1 quad 2 3 12 11
3 1 quad 3 4 13 12
4 1 quad 4 5 14 13
5 1 quad 5 6 15 14
6 1 quad 6 7 16 15
7 1 quad 7 8 17 16 
8 1 quad 8 1 10 17
9 1 quad 10 11 12 9
10 1 quad 12 13 14 9
11 1 quad 14 15 16 9
12 1 quad 16 17 10 9
13 1 quad 2 1 19 20 
14 1 quad 3 2 20 21
15 1 quad 4 3 21 22
16 1 quad 5 4 22 23
17 1 quad 6 5 23 24
18 1 quad 7 6 24 25
19 1 quad 8 7 25 26
20 1 quad 1 8 26 19
21 1 quad 21 20 19 18
22 1 quad 23 22 21 18
23 1 quad 25 24 23 18
24 1 quad 19 26 25 18 
 
