34 24 0 0 0
1 1 0 0
2 0.707106781 0.707106781 0
3 0 1 0
4 -0.707106781 0.707106781 0
5 -1 0 0
6 -0.707106781 -0.707106781 0
7 0 -1 0
8 0.707106781 -0.707106781 0
9 0 0 1
10 0.707106781 0 0.707106781
11 0.577350269 0.577350269 0.577350269
12 0 0.707106781 0.707106781
13 -0.577350269 0.577350269 0.577350269
14 -0.707106781 0 0.707106781
15 -0.577350269 -0.577350269 0.577350269
16 0 -0.707106781 0.707106781
17 0.577350269 -0.577350269 0.577350269
18 0 0 -1
19 0.707106781 0 -0.707106781
20 0.577350269 0.577350269 -0.577350269
21 0 0.707106781 -0.707106781
22 -0.577350269 0.577350269 -0.577350269
23 -0.707106781 -0 -0.707106781
24 -0.577350269 -0.577350269 -0.577350269
25 0 -0.707106781 -0.707106781
26 0.577350269 -0.577350269 -0.577350269
27 1 0 0
28 0.707106781 0.707106781 0
29 0 1 0
30 -0.707106781 0.707106781 0
31 -1 0 0
32 -0.707106781 -0.707106781 0
33 0 -1 0
34 0.707106781 -0.707106781 0
1 1 quad 1 2 11 10
2 1 quad 2 3 12 11
3 1 quad 3 4 13 12
4 1 quad 4 5 14 13
5 1 quad 5 6 15 14
6 1 quad 6 7 16 15
7 1 quad 7 8 17 16 
8 1 quad 8 1 10 17
9 1 quad 10 11 12 9
10 1 quad 12 13 14 9
11 1 quad 14 15 16 9
12 1 quad 16 17 10 9
13 2 quad 28 27 19 20 
14 2 quad 29 28 20 21
15 2 quad 30 29 21 22
16 2 quad 31 30 22 23
17 2 quad 32 31 23 24
18 2 quad 33 32 24 25
19 2 quad 34 33 25 26
20 2 quad 27 34 26 19
21 2 quad 21 20 19 18
22 2 quad 23 22 21 18
23 2 quad 25 24 23 18
24 2 quad 19 26 25 18 
 
